

iteration	best results	gbest
0		26207	26207
1		26207	26207
2		26207	26207
3		26207	26207
4		26207	26207
5		26207	26207
6		26144	26144
7		26144	26144
8		26144	26144
9		25645	25645
10		25366	25366
11		25366	25366
12		25366	25366
13		25315	25315
14		25315	25315
15		25315	25315
16		25315	25315
17		25315	25315
18		25315	25315
19		25315	25315
20		25315	25315
21		25315	25315
22		25315	25315
23		25315	25315
24		25315	25315
25		25315	25315
26		25315	25315
27		25315	25315
28		25315	25315
29		25315	25315
30		25315	25315
31		25315	25315
32		25315	25315
33		25315	25315
34		25315	25315
35		25315	25315
36		25315	25315
37		25315	25315
38		25315	25315
39		25315	25315
40		25315	25315
41		25315	25315
42		25315	25315
43		25315	25315
44		25315	25315
45		25315	25315
46		25315	25315
47		25315	25315
48		25315	25315
49		25315	25315
50		24901	24901
51		24901	24901
52		24901	24901
53		24901	24901
54		24901	24901
55		24901	24901
56		24901	24901
57		24901	24901
58		24901	24901
59		24901	24901
60		24901	24901
61		24901	24901
62		24901	24901
63		24901	24901
64		24901	24901
65		24901	24901
66		24901	24901
67		24901	24901
68		24901	24901
69		24901	24901
70		24901	24901
71		24901	24901
72		24901	24901
73		24901	24901
74		24901	24901
75		24901	24901
76		24901	24901
77		24901	24901
78		24901	24901
79		24901	24901
80		24901	24901
81		24901	24901
82		24901	24901
83		24901	24901
84		24901	24901
85		24901	24901
86		24315	24315
87		24315	24315
88		24315	24315
89		24315	24315
90		24315	24315
91		24315	24315
92		24315	24315
93		24315	24315
94		24315	24315
95		24315	24315
96		24315	24315
97		24315	24315
98		24315	24315
99		23921	23921
100		23921	23921
101		23921	23921
102		23921	23921
103		23921	23921
104		23921	23921
105		23921	23921
106		23921	23921
107		23921	23921
108		23921	23921
109		23921	23921
110		23921	23921
111		23921	23921
112		23921	23921
113		23921	23921
114		23921	23921
115		23921	23921
116		23921	23921
117		23921	23921
118		23921	23921
119		23921	23921
120		23921	23921
121		23722	23722
122		23722	23722
123		23722	23722
124		23722	23722
125		23722	23722
126		23722	23722
127		23722	23722
128		23722	23722
129		23722	23722
130		23722	23722
131		23722	23722
132		23722	23722
133		23722	23722
134		23722	23722
135		23722	23722
136		23722	23722
137		23722	23722
138		23722	23722
139		23722	23722
140		23722	23722
141		23722	23722
142		23722	23722
143		23722	23722
144		23722	23722
145		23722	23722
146		23722	23722
147		23722	23722
148		23722	23722
149		23722	23722
150		23722	23722
151		23722	23722
152		23722	23722
153		23722	23722
154		23722	23722
155		23722	23722
156		23722	23722
157		23722	23722
158		23722	23722
159		23722	23722
160		23722	23722
161		23722	23722
162		23722	23722
163		23722	23722
164		23722	23722
165		23722	23722
166		23722	23722
167		23722	23722
168		23722	23722
169		23722	23722
170		23722	23722
171		23722	23722
172		23401	23401
173		23401	23401
174		23401	23401
175		23401	23401
176		23401	23401
177		23401	23401
178		23401	23401
179		23401	23401
180		23401	23401
181		23401	23401
182		23401	23401
183		23401	23401
184		23401	23401
185		23401	23401
186		23401	23401
187		23401	23401
188		23401	23401
189		23401	23401
190		23401	23401
191		23401	23401
192		23401	23401
193		23401	23401
194		23401	23401
195		23401	23401
196		23401	23401
197		23401	23401
198		23401	23401
199		23401	23401
best position:
8, 41, 6, 19, 17, 9, 23, 13, 10, 2, 22, 28, 33, 48, 21, 31, 30, 4, 36, 45, 1, 49, 12, 26, 27, 34, 14, 47, 20, 15, 5, 0, 37, 18, 7, 40, 51, 3, 16, 29, 46, 25, 24, 32, 11, 35, 44, 38, 39, 50, 43, 42, 


iteration	best results	gbest
0		23401	2147483647
1		23401	2147483647
2		23401	2147483647
3		23401	2147483647
4		23401	2147483647
5		23401	2147483647
6		23401	2147483647
7		23401	2147483647
8		23401	2147483647
9		23401	2147483647
10		23401	2147483647
11		23401	2147483647
12		23401	2147483647
13		23401	2147483647
14		23401	2147483647
15		23401	2147483647
16		23401	2147483647
17		23401	2147483647
18		23401	2147483647
19		23401	2147483647
20		23401	2147483647
21		23401	2147483647
22		23401	2147483647
23		23401	2147483647
24		23401	2147483647
25		23401	2147483647
26		23401	2147483647
27		23401	2147483647
28		23401	2147483647
29		23401	2147483647
30		23401	2147483647
31		23401	2147483647
32		23401	2147483647
33		23401	2147483647
34		23401	2147483647
35		23401	2147483647
36		23401	2147483647
37		23401	2147483647
38		23401	2147483647
39		23401	2147483647
40		23401	2147483647
41		23401	2147483647
42		23401	2147483647
43		23401	2147483647
44		23401	2147483647
45		23401	2147483647
46		23401	2147483647
47		23401	2147483647
48		23401	2147483647
49		23401	2147483647
50		23401	2147483647
51		23401	2147483647
52		23401	2147483647
53		23401	2147483647
54		23401	2147483647
55		23401	2147483647
56		23401	2147483647
57		23401	2147483647
58		23401	2147483647
59		23401	2147483647
60		23401	2147483647
61		23401	2147483647
62		23401	2147483647
63		23401	2147483647
64		23401	2147483647
65		23401	2147483647
66		23401	2147483647
67		23401	2147483647
68		23401	2147483647
69		23401	2147483647
70		23401	2147483647
71		23401	2147483647
72		23401	2147483647
73		23401	2147483647
74		23401	2147483647
75		23401	2147483647
76		23401	2147483647
77		23401	2147483647
78		23401	2147483647
79		23401	2147483647
80		23401	2147483647
81		23401	2147483647
82		23401	2147483647
83		23401	2147483647
84		23401	2147483647
85		23401	2147483647
86		23401	2147483647
87		23401	2147483647
88		23401	2147483647
89		23401	2147483647
90		23401	2147483647
91		23401	2147483647
92		23401	2147483647
93		23401	2147483647
94		23401	2147483647
95		23401	2147483647
96		23401	2147483647
97		23401	2147483647
98		23401	2147483647
99		23401	2147483647
100		23401	2147483647
101		23401	2147483647
102		23401	2147483647
103		23401	2147483647
104		23401	2147483647
105		23401	2147483647
106		23401	2147483647
107		23401	2147483647
108		23401	2147483647
109		23401	2147483647
110		23401	2147483647
111		23401	2147483647
112		23401	2147483647
113		23401	2147483647
114		23401	2147483647
115		23401	2147483647
116		23401	2147483647
117		23401	2147483647
118		23401	2147483647
119		23401	2147483647
120		23401	2147483647
121		23401	2147483647
122		23401	2147483647
123		23401	2147483647
124		23401	2147483647
125		23401	2147483647
126		23401	2147483647
127		23401	2147483647
128		23401	2147483647
129		23401	2147483647
130		23401	2147483647
131		23401	2147483647
132		23401	2147483647
133		23401	2147483647
134		23401	2147483647
135		23401	2147483647
136		23401	2147483647
137		23401	2147483647
138		23401	2147483647
139		23401	2147483647
140		23401	2147483647
141		23401	2147483647
142		23401	2147483647
143		23401	2147483647
144		23401	2147483647
145		23401	2147483647
146		23401	2147483647
147		23401	2147483647
148		23401	2147483647
149		23401	2147483647
150		23401	2147483647
151		23401	2147483647
152		23401	2147483647
153		23401	2147483647
154		23401	2147483647
155		23401	2147483647
156		23401	2147483647
157		23401	2147483647
158		23401	2147483647
159		23401	2147483647
160		23401	2147483647
161		23401	2147483647
162		23401	2147483647
163		23401	2147483647
164		23401	2147483647
165		23401	2147483647
166		23401	2147483647
167		23401	2147483647
168		23401	2147483647
169		23401	2147483647
170		23401	2147483647
171		23401	2147483647
172		23401	2147483647
173		23401	2147483647
174		23401	2147483647
175		23401	2147483647
176		23401	2147483647
177		23401	2147483647
178		23401	2147483647
179		23401	2147483647
180		23401	2147483647
181		23401	2147483647
182		23401	2147483647
183		23401	2147483647
184		23401	2147483647
185		23401	2147483647
186		23401	2147483647
187		23401	2147483647
188		23401	2147483647
189		23401	2147483647
190		23401	2147483647
191		23401	2147483647
192		23401	2147483647
193		23401	2147483647
194		23401	2147483647
195		23401	2147483647
196		23401	2147483647
197		23401	2147483647
198		23401	2147483647
199		23401	2147483647
best position:
50, 51, 61, 67, 49, 16, 66, 27, 48, 23, 1, 47, 73, 0, 46, 13, 52, 41, 35, 45, 19, 37, 69, 75, 59, 32, 65, 5, 3, 30, 31, 36, 2, 39, 71, 4, 15, 14, 21, 18, 44, 63, 10, 58, 55, 57, 24, 70, 29, 40, 62, 26, 43, 12, 11, 8, 28, 56, 38, 34, 22, 25, 64, 54, 17, 60, 33, 68, 74, 72, 53, 42, 20, 9, 6, 7, 


iteration	best results	gbest
0		3112	3112
1		3099	3099
2		3010	3010
3		3010	3010
4		3010	3010
5		3010	3010
6		3010	3010
7		3010	3010
8		3010	3010
9		3010	3010
10		3010	3010
11		3010	3010
12		2999	2999
13		2937	2937
14		2937	2937
15		2937	2937
16		2937	2937
17		2937	2937
18		2937	2937
19		2937	2937
20		2937	2937
21		2937	2937
22		2937	2937
23		2937	2937
24		2937	2937
25		2937	2937
26		2937	2937
27		2937	2937
28		2937	2937
29		2937	2937
30		2937	2937
31		2875	2875
32		2875	2875
33		2875	2875
34		2875	2875
35		2875	2875
36		2875	2875
37		2875	2875
38		2875	2875
39		2875	2875
40		2875	2875
41		2875	2875
42		2875	2875
43		2875	2875
44		2875	2875
45		2875	2875
46		2875	2875
47		2875	2875
48		2875	2875
49		2875	2875
50		2875	2875
51		2875	2875
52		2875	2875
53		2875	2875
54		2875	2875
55		2849	2849
56		2849	2849
57		2849	2849
58		2849	2849
59		2849	2849
60		2849	2849
61		2849	2849
62		2849	2849
63		2849	2849
64		2849	2849
65		2849	2849
66		2849	2849
67		2849	2849
68		2849	2849
69		2849	2849
70		2849	2849
71		2849	2849
72		2849	2849
73		2849	2849
74		2849	2849
75		2849	2849
76		2849	2849
77		2849	2849
78		2849	2849
79		2849	2849
80		2849	2849
81		2849	2849
82		2849	2849
83		2849	2849
84		2849	2849
85		2849	2849
86		2849	2849
87		2849	2849
88		2849	2849
89		2849	2849
90		2849	2849
91		2849	2849
92		2849	2849
93		2849	2849
94		2849	2849
95		2849	2849
96		2849	2849
97		2849	2849
98		2849	2849
99		2849	2849
100		2849	2849
101		2849	2849
102		2849	2849
103		2849	2849
104		2849	2849
105		2849	2849
106		2849	2849
107		2849	2849
108		2849	2849
109		2849	2849
110		2849	2849
111		2849	2849
112		2849	2849
113		2849	2849
114		2849	2849
115		2849	2849
116		2849	2849
117		2849	2849
118		2849	2849
119		2849	2849
120		2849	2849
121		2849	2849
122		2849	2849
123		2849	2849
124		2849	2849
125		2849	2849
126		2849	2849
127		2849	2849
128		2849	2849
129		2849	2849
130		2849	2849
131		2849	2849
132		2849	2849
133		2849	2849
134		2849	2849
135		2849	2849
136		2849	2849
137		2849	2849
138		2849	2849
139		2849	2849
140		2849	2849
141		2849	2849
142		2849	2849
143		2849	2849
144		2849	2849
145		2849	2849
146		2849	2849
147		2849	2849
148		2849	2849
149		2849	2849
150		2849	2849
151		2849	2849
152		2849	2849
153		2849	2849
154		2849	2849
155		2849	2849
156		2849	2849
157		2849	2849
158		2849	2849
159		2849	2849
160		2808	2808
161		2808	2808
162		2808	2808
163		2808	2808
164		2808	2808
165		2808	2808
166		2808	2808
167		2808	2808
168		2808	2808
169		2808	2808
170		2808	2808
171		2808	2808
172		2808	2808
173		2808	2808
174		2808	2808
175		2808	2808
176		2808	2808
177		2808	2808
178		2808	2808
179		2808	2808
180		2808	2808
181		2808	2808
182		2808	2808
183		2808	2808
184		2808	2808
185		2808	2808
186		2808	2808
187		2808	2808
188		2808	2808
189		2808	2808
190		2808	2808
191		2808	2808
192		2808	2808
193		2808	2808
194		2808	2808
195		2808	2808
196		2808	2808
197		2808	2808
198		2808	2808
199		2808	2808
best position:
3, 44, 81, 19, 95, 72, 86, 63, 13, 22, 67, 45, 17, 92, 85, 50, 41, 79, 27, 11, 7, 9, 28, 1, 12, 62, 61, 75, 77, 66, 39, 91, 4, 43, 52, 51, 68, 34, 5, 49, 31, 0, 23, 35, 21, 48, 74, 54, 32, 38, 58, 88, 90, 2, 29, 6, 36, 37, 73, 60, 42, 76, 26, 65, 82, 53, 55, 18, 14, 25, 33, 46, 80, 83, 59, 93, 94, 89, 64, 20, 87, 78, 16, 30, 69, 56, 47, 71, 70, 57, 40, 24, 10, 84, 15, 8, 


iteration	best results	gbest
0		25893	25893
1		25745	25745
2		23519	23519
3		23519	23519
4		23519	23519
5		23519	23519
6		23519	23519
7		23519	23519
8		23519	23519
9		23519	23519
10		23519	23519
11		23519	23519
12		23519	23519
13		23519	23519
14		23519	23519
15		23519	23519
16		23519	23519
17		23175	23175
18		23175	23175
19		23175	23175
20		23175	23175
21		23175	23175
22		23175	23175
23		23175	23175
24		23175	23175
25		23175	23175
26		23175	23175
27		23175	23175
28		23175	23175
29		23175	23175
30		23175	23175
31		23175	23175
32		23175	23175
33		23175	23175
34		23175	23175
35		23175	23175
36		23175	23175
37		23175	23175
38		23175	23175
39		23175	23175
40		23175	23175
41		23175	23175
42		23175	23175
43		23175	23175
44		23175	23175
45		23175	23175
46		23175	23175
47		23175	23175
48		23175	23175
49		23175	23175
50		23175	23175
51		23175	23175
52		23175	23175
53		23175	23175
54		23175	23175
55		23175	23175
56		23175	23175
57		23175	23175
58		23175	23175
59		23175	23175
60		23175	23175
61		23175	23175
62		23175	23175
63		23175	23175
64		23175	23175
65		23175	23175
66		23175	23175
67		23175	23175
68		23175	23175
69		23175	23175
70		23175	23175
71		23175	23175
72		23175	23175
73		23175	23175
74		23175	23175
75		23175	23175
76		23175	23175
77		23175	23175
78		23175	23175
79		23175	23175
80		23175	23175
81		23175	23175
82		23175	23175
83		23175	23175
84		23175	23175
85		23175	23175
86		23175	23175
87		23175	23175
88		23175	23175
89		23175	23175
90		23175	23175
91		23175	23175
92		23175	23175
93		23175	23175
94		23175	23175
95		23175	23175
96		23175	23175
97		23175	23175
98		23175	23175
99		23175	23175
best position:
38, 32, 26, 50, 11, 23, 16, 2, 44, 0, 19, 4, 45, 49, 14, 20, 29, 10, 12, 31, 18, 30, 9, 8, 47, 25, 13, 24, 27, 51, 41, 6, 22, 43, 46, 5, 21, 37, 48, 17, 39, 3, 42, 7, 36, 28, 40, 35, 33, 34, 1, 15, 
